NAME: random-85-23547
TYPE: TSP
COMMENT: size=85 seed=23547
DIMENSION: 172
EDGE_WEIGHT_TYPE: EUC_2D
NODE_COORD_SECTION
+0 429 444
-0 429 444
+1 95 499
-1 339 971
+2 116 0
-2 270 445
+3 922 316
-3 963 757
+4 328 656
-4 364 33
+5 731 806
-5 227 403
+6 492 22
-6 398 207
+7 987 275
-7 614 113
+8 251 350
-8 266 235
+9 801 786
-9 968 593
+10 350 592
-10 619 659
+11 668 498
-11 885 473
+12 731 707
-12 491 588
+13 370 337
-13 423 790
+14 796 573
-14 287 319
+15 187 942
-15 724 864
+16 43 334
-16 317 184
+17 617 159
-17 876 492
+18 317 612
-18 124 666
+19 882 379
-19 118 951
+20 581 121
-20 732 530
+21 531 184
-21 690 581
+22 199 825
-22 159 117
+23 780 812
-23 398 362
+24 811 34
-24 959 461
+25 850 13
-25 423 163
+26 446 206
-26 401 793
+27 970 649
-27 858 217
+28 989 547
-28 34 937
+29 660 430
-29 133 427
+30 346 824
-30 628 891
+31 161 538
-31 463 7
+32 709 595
-32 679 617
+33 121 223
-33 201 624
+34 916 433
-34 615 77
+35 665 998
-35 221 443
+36 961 755
-36 747 666
+37 653 841
-37 562 996
+38 316 652
-38 839 382
+39 82 975
-39 896 799
+40 36 736
-40 662 295
+41 990 961
-41 166 100
+42 632 431
-42 39 980
+43 571 793
-43 237 236
+44 24 866
-44 101 522
+45 785 149
-45 728 947
+46 541 599
-46 18 1
+47 598 50
-47 656 785
+48 406 108
-48 216 150
+49 527 364
-49 845 51
+50 187 867
-50 578 581
+51 56 441
-51 939 940
+52 498 556
-52 878 129
+53 708 469
-53 318 820
+54 438 727
-54 412 372
+55 884 229
-55 142 327
+56 243 222
-56 591 237
+57 526 446
-57 948 141
+58 642 29
-58 197 71
+59 104 411
-59 773 297
+60 828 847
-60 509 664
+61 855 534
-61 450 524
+62 841 146
-62 610 46
+63 106 837
-63 892 511
+64 751 682
-64 506 993
+65 469 14
-65 701 632
+66 633 853
-66 893 104
+67 663 830
-67 659 958
+68 587 699
-68 702 423
+69 532 409
-69 141 29
+70 23 262
-70 186 615
+71 26 13
-71 345 930
+72 69 598
-72 588 605
+73 977 616
-73 9 758
+74 429 719
-74 799 314
+75 73 865
-75 655 197
+76 937 226
-76 175 513
+77 839 251
-77 253 715
+78 505 357
-78 352 711
+79 183 788
-79 997 873
+80 590 322
-80 304 950
+81 498 899
-81 799 103
+82 204 821
-82 365 632
+83 381 554
-83 191 996
+84 266 346
-84 723 596
+85 314 129
-85 38 730
PRECEDENCE_SECTION
+0 -0
+1 -1
+2 -2
+3 -3
+4 -4
+5 -5
+6 -6
+7 -7
+8 -8
+9 -9
+10 -10
+11 -11
+12 -12
+13 -13
+14 -14
+15 -15
+16 -16
+17 -17
+18 -18
+19 -19
+20 -20
+21 -21
+22 -22
+23 -23
+24 -24
+25 -25
+26 -26
+27 -27
+28 -28
+29 -29
+30 -30
+31 -31
+32 -32
+33 -33
+34 -34
+35 -35
+36 -36
+37 -37
+38 -38
+39 -39
+40 -40
+41 -41
+42 -42
+43 -43
+44 -44
+45 -45
+46 -46
+47 -47
+48 -48
+49 -49
+50 -50
+51 -51
+52 -52
+53 -53
+54 -54
+55 -55
+56 -56
+57 -57
+58 -58
+59 -59
+60 -60
+61 -61
+62 -62
+63 -63
+64 -64
+65 -65
+66 -66
+67 -67
+68 -68
+69 -69
+70 -70
+71 -71
+72 -72
+73 -73
+74 -74
+75 -75
+76 -76
+77 -77
+78 -78
+79 -79
+80 -80
+81 -81
+82 -82
+83 -83
+84 -84
+85 -85
EOF
